INCAR created by Atomic Simulation Environment
 BMIX = 0.001000
 AMIX_MAG = 0.010000
 BMIX_MAG = 0.000100
 AMIN = 0.010000
 AMIX = 0.010000
 SIGMA = 0.100000
 ALGO = VeryFast
 ISYM = 0
 ISPIN = 2
 ISMEAR = 1
 KPAR = 4
 ISTART = 0
 VOSKOWN = 1
 NELM = 100
 NSW = 1000000
 NELMDL = -15
 IBRION = 13
 NPAR = 32
 MAGMOM = 32*3.0000 
 LCHARG = .FALSE.
 LWAVE = .FALSE.
 LPLANE = .FALSE.
 LREAL = auto
